set VV := 0 1 2 3 4 5 6 7 8 9 10 11 12 13 14 15 16 17 18 19 20 21 22 23 24 25 26 27 28 29 30 31 32 33 34 ;
set VS := 0 1 2 3 4 5 6 7 8 9 10 11 12 13 14 15 16 17 18 19 20 21 22 23 24 25 26 27 28 29 30 31 32 33 34 35 36 37 38 39 40 41 42 43 44 45 46 47 48 49 50 51 52 53 54 55 56 57 58 59 60 61 62 63 64 65 66 67 68 69 70 71 72 73 74 ;
param cv := 
0 10
1 10
2 10
3 10
4 25
5 11
6 24
7 23
8 20
9 12
10 20
11 17
12 24
13 12
14 14
15 13
16 21
17 22
18 25
19 10
20 24
21 22
22 25
23 19
24 23
25 22
26 10
27 13
28 16
29 11
30 14
31 25
32 23
33 17
34 12
;
param cs := 
0 38
1 20
2 26
3 28
4 35
5 40
6 31
7 24
8 22
9 26
10 37
11 28
12 28
13 23
14 33
15 29
16 33
17 25
18 28
19 21
20 30
21 32
22 32
23 32
24 39
25 32
26 20
27 24
28 20
29 29
30 21
31 33
32 32
33 24
34 37
35 34
36 40
37 20
38 30
39 37
40 27
41 22
42 31
43 28
44 28
45 34
46 28
47 29
48 36
49 40
50 40
51 20
52 26
53 40
54 28
55 25
56 20
57 30
58 40
59 37
60 22
61 30
62 29
63 26
64 27
65 34
66 21
67 37
68 37
69 27
70 32
71 34
72 20
73 37
74 24
;
param bv:	 0 1 2 3 4 5 6 7 8 9 10 11 12 13 14 15 16 17 18 19 20 21 22 23 24 25 26 27 28 29 30 31 32 33 34 := 
		0 0 0 0 0 20 0 0 0 0 0 0 0 0 0 0 0 0 10 0 16 19 0 0 0 16 0 0 0 0 0 0 0 12 0 0 
		1 0 0 0 0 0 0 0 0 0 0 0 13 0 0 0 0 0 0 0 0 0 0 0 0 0 0 0 0 0 0 14 0 13 0 0 
		2 0 0 0 0 0 0 0 13 0 0 0 0 0 0 0 0 0 0 0 0 0 0 0 0 0 18 0 0 0 12 0 18 0 0 16 
		3 0 0 0 0 0 0 0 0 0 0 13 0 0 0 0 0 0 0 0 0 0 0 0 0 0 12 0 0 20 23 0 0 0 0 14 
		4 0 0 0 0 0 0 0 0 0 0 20 13 0 0 0 0 0 0 0 0 0 0 0 0 0 0 17 0 0 0 0 0 0 0 24 
		5 0 0 0 0 0 0 0 0 0 18 0 0 0 0 17 0 0 0 0 0 0 22 0 0 0 0 0 0 0 0 0 18 0 0 14 
		6 0 0 0 0 0 0 0 0 0 19 0 0 0 19 0 0 0 19 0 0 0 0 0 0 0 0 0 0 18 0 18 0 0 0 0 
		7 0 0 0 0 0 0 0 0 0 0 0 0 0 0 0 11 0 0 0 0 0 17 19 0 0 0 0 21 0 0 0 0 0 0 0 
		8 0 0 0 0 0 0 0 0 0 0 0 0 0 0 0 0 0 0 0 24 0 0 0 0 0 0 0 0 0 0 0 0 14 0 0 
		9 0 0 0 0 0 0 0 0 0 0 0 0 0 0 0 0 24 0 21 16 0 0 0 0 0 13 0 0 0 0 0 15 0 0 0 
		10 0 0 0 0 0 0 0 0 0 0 0 0 0 0 0 0 0 0 0 0 0 0 0 16 0 0 20 0 0 0 0 0 0 0 0 
		11 0 0 0 0 0 0 0 0 0 0 0 0 0 16 0 0 0 0 0 0 0 0 0 0 0 0 16 0 0 0 0 0 0 0 0 
		12 0 0 0 0 0 0 0 0 0 0 0 0 0 0 0 0 0 0 0 11 0 0 0 0 0 0 0 0 0 0 15 0 0 0 0 
		13 0 0 0 0 0 0 0 0 0 0 0 0 0 0 0 0 0 14 0 13 0 0 0 0 0 0 0 0 17 0 20 0 10 0 0 
		14 0 0 0 0 0 0 0 0 0 0 0 0 0 0 0 0 0 0 0 0 0 0 0 0 0 0 0 24 0 17 0 0 0 0 0 
		15 0 0 0 0 0 0 0 0 0 0 0 0 0 0 0 0 0 0 0 0 0 0 14 0 0 0 0 0 0 0 0 25 0 0 0 
		16 0 0 0 0 0 0 0 0 0 0 0 0 0 0 0 0 0 0 0 0 0 10 0 0 0 0 13 0 0 0 0 0 0 0 0 
		17 0 0 0 0 0 0 0 0 0 0 0 0 0 0 0 0 0 0 0 0 14 0 0 0 0 0 0 0 0 23 13 0 22 20 17 
		18 0 0 0 0 0 0 0 0 0 0 0 0 0 0 0 0 0 0 0 0 12 0 0 0 25 0 0 0 0 0 0 0 0 0 14 
		19 0 0 0 0 0 0 0 0 0 0 0 0 0 0 0 0 0 0 0 0 0 0 17 0 0 0 0 0 0 0 0 0 0 0 0 
		20 0 0 0 0 0 0 0 0 0 0 0 0 0 0 0 0 0 0 0 0 0 0 0 0 0 0 0 0 0 0 0 0 20 0 0 
		21 0 0 0 0 0 0 0 0 0 0 0 0 0 0 0 0 0 0 0 0 0 0 0 0 0 0 0 0 0 0 0 0 0 0 0 
		22 0 0 0 0 0 0 0 0 0 0 0 0 0 0 0 0 0 0 0 0 0 0 0 22 0 0 19 11 0 0 0 0 0 0 0 
		23 0 0 0 0 0 0 0 0 0 0 0 0 0 0 0 0 0 0 0 0 0 0 0 0 0 0 0 0 0 0 0 0 0 0 0 
		24 0 0 0 0 0 0 0 0 0 0 0 0 0 0 0 0 0 0 0 0 0 0 0 0 0 0 0 18 0 0 0 0 15 0 0 
		25 0 0 0 0 0 0 0 0 0 0 0 0 0 0 0 0 0 0 0 0 0 0 0 0 0 0 0 0 0 0 0 0 0 22 0 
		26 0 0 0 0 0 0 0 0 0 0 0 0 0 0 0 0 0 0 0 0 0 0 0 0 0 0 0 0 0 0 0 0 0 0 0 
		27 0 0 0 0 0 0 0 0 0 0 0 0 0 0 0 0 0 0 0 0 0 0 0 0 0 0 0 0 0 0 0 0 0 0 0 
		28 0 0 0 0 0 0 0 0 0 0 0 0 0 0 0 0 0 0 0 0 0 0 0 0 0 0 0 0 0 15 0 0 20 0 0 
		29 0 0 0 0 0 0 0 0 0 0 0 0 0 0 0 0 0 0 0 0 0 0 0 0 0 0 0 0 0 0 0 0 0 0 0 
		30 0 0 0 0 0 0 0 0 0 0 0 0 0 0 0 0 0 0 0 0 0 0 0 0 0 0 0 0 0 0 0 0 0 0 0 
		31 0 0 0 0 0 0 0 0 0 0 0 0 0 0 0 0 0 0 0 0 0 0 0 0 0 0 0 0 0 0 0 0 0 0 0 
		32 0 0 0 0 0 0 0 0 0 0 0 0 0 0 0 0 0 0 0 0 0 0 0 0 0 0 0 0 0 0 0 0 0 0 0 
		33 0 0 0 0 0 0 0 0 0 0 0 0 0 0 0 0 0 0 0 0 0 0 0 0 0 0 0 0 0 0 0 0 0 0 0 
		34 0 0 0 0 0 0 0 0 0 0 0 0 0 0 0 0 0 0 0 0 0 0 0 0 0 0 0 0 0 0 0 0 0 0 0 
;
param bs:	 0 1 2 3 4 5 6 7 8 9 10 11 12 13 14 15 16 17 18 19 20 21 22 23 24 25 26 27 28 29 30 31 32 33 34 35 36 37 38 39 40 41 42 43 44 45 46 47 48 49 50 51 52 53 54 55 56 57 58 59 60 61 62 63 64 65 66 67 68 69 70 71 72 73 74 := 
		0 0 0 0 0 0 0 0 0 0 0 0 31 0 0 0 0 0 0 0 0 0 0 0 0 0 0 0 0 0 0 0 0 0 0 0 0 0 0 0 0 0 0 0 0 0 0 38 0 0 29 0 0 0 0 0 36 0 0 0 33 0 0 0 0 0 0 0 0 0 0 0 0 0 0 0 
		1 0 0 0 0 0 0 0 0 0 29 0 0 0 0 0 0 0 0 31 0 0 0 0 0 0 0 0 0 0 0 0 0 0 0 0 0 0 0 0 40 0 0 0 27 0 0 0 0 0 0 0 0 0 36 0 0 0 0 0 0 25 0 0 0 0 0 0 0 0 0 24 36 0 0 0 
		2 0 0 0 29 0 0 37 0 0 0 0 0 0 0 0 0 0 0 0 0 0 0 0 0 0 0 0 0 36 0 26 0 0 0 0 0 0 0 0 26 0 0 0 0 21 0 0 0 0 0 0 0 0 0 0 0 0 0 0 0 0 0 0 0 21 0 0 0 0 0 0 0 0 0 0 
		3 0 0 29 0 0 0 33 0 0 0 0 0 0 0 0 0 0 0 0 0 0 0 0 0 0 0 0 0 0 0 0 0 0 30 0 0 0 0 0 0 0 0 0 0 22 0 0 0 0 26 0 0 0 0 0 37 0 0 36 0 0 36 0 0 0 0 0 0 22 0 0 25 21 0 0 
		4 0 0 0 0 0 0 0 0 0 24 0 0 0 0 0 0 0 0 0 0 0 0 0 0 0 0 0 0 0 0 0 0 25 0 0 0 0 0 30 0 0 0 0 0 0 21 0 0 0 0 0 0 0 33 0 0 0 0 0 0 0 0 0 40 0 0 0 0 0 32 0 0 23 0 0 
		5 0 0 0 0 0 0 0 0 0 0 0 24 0 0 0 0 0 0 24 0 0 0 0 0 0 0 40 0 0 0 0 0 31 0 0 0 0 0 0 0 0 0 0 0 0 0 0 0 0 0 0 0 0 0 0 0 0 0 31 0 0 25 24 0 0 0 0 0 0 0 0 0 0 0 0 
		6 0 0 37 33 0 0 0 0 0 0 0 0 0 0 40 33 0 0 0 0 0 0 37 20 39 0 25 0 0 0 0 0 0 38 0 0 0 0 0 32 0 0 0 23 0 0 0 0 0 0 0 0 33 0 30 0 0 34 0 0 0 0 0 0 0 0 34 0 0 0 0 0 0 0 0 
		7 0 0 0 0 0 0 0 0 0 0 0 0 0 0 0 0 0 0 0 0 0 0 0 0 0 0 0 0 0 0 0 0 0 0 0 0 0 0 0 0 0 0 0 0 0 26 0 32 0 0 0 0 0 0 0 0 0 0 0 0 0 0 0 0 0 0 0 0 0 0 0 0 0 0 0 
		8 0 0 0 0 0 0 0 0 0 0 25 0 0 37 0 0 0 0 0 0 0 0 0 0 0 0 0 0 0 0 0 0 0 0 0 0 0 0 0 0 0 0 0 0 0 0 20 0 0 0 0 0 0 0 0 27 0 0 0 22 0 0 0 0 26 0 0 0 0 0 0 0 0 0 0 
		9 0 29 0 0 24 0 0 0 0 0 0 0 0 0 0 0 0 0 0 0 0 0 0 0 20 0 0 0 0 0 0 0 0 0 0 0 0 0 0 0 0 0 0 0 0 35 0 0 0 0 0 0 30 0 0 0 0 0 0 34 0 0 0 0 0 0 0 0 0 0 23 0 0 0 0 
		10 0 0 0 0 0 0 0 0 25 0 0 0 0 0 0 24 0 0 0 0 0 0 0 0 0 0 0 0 0 0 0 0 0 0 0 0 0 0 0 22 0 0 34 0 22 0 0 0 0 0 0 23 0 0 0 0 0 0 0 0 0 0 0 0 36 0 0 0 0 0 0 0 0 0 0 
		11 31 0 0 0 0 24 0 0 0 0 0 0 0 0 0 25 0 0 29 0 0 27 0 0 0 0 21 20 0 0 0 0 0 0 31 0 0 35 0 0 0 0 0 0 40 0 0 0 0 0 0 0 0 0 0 0 0 0 0 0 0 0 0 33 26 0 0 0 0 0 0 0 0 0 0 
		12 0 0 0 0 0 0 0 0 0 0 0 0 0 0 0 0 0 23 0 0 0 0 0 0 0 0 0 0 0 0 0 0 0 0 32 0 0 0 0 0 0 0 28 0 36 26 0 0 0 0 0 0 0 0 23 0 0 0 0 0 0 0 0 0 0 0 38 0 0 0 20 0 0 0 0 
		13 0 0 0 0 0 0 0 0 37 0 0 0 0 0 0 0 0 0 0 0 0 0 0 0 0 0 0 0 0 0 38 0 0 0 0 33 0 0 0 0 0 0 27 0 38 0 36 0 0 0 0 23 0 0 0 0 0 0 0 0 0 0 0 0 0 0 0 0 0 0 0 0 0 0 0 
		14 0 0 0 0 0 0 40 0 0 0 0 0 0 0 0 0 0 0 0 0 0 0 0 0 0 30 36 0 32 0 28 0 0 0 0 0 0 0 0 0 0 0 0 0 0 0 0 0 29 0 0 0 0 0 0 0 0 0 0 0 0 0 0 38 0 0 0 0 0 0 27 0 22 0 0 
		15 0 0 0 0 0 0 33 0 0 0 24 25 0 0 0 0 0 0 0 0 0 22 0 0 0 0 0 0 0 0 0 0 0 0 0 0 0 0 0 0 30 0 0 0 0 0 0 0 0 0 0 0 27 0 0 0 0 0 34 23 0 0 0 0 0 0 0 0 0 0 0 0 0 0 0 
		16 0 0 0 0 0 0 0 0 0 0 0 0 0 0 0 0 0 0 0 0 0 0 0 0 0 0 0 0 0 0 0 0 0 0 0 0 0 0 0 0 0 23 0 0 0 0 0 23 0 0 25 0 0 0 0 0 0 0 0 0 0 40 0 0 0 0 0 0 0 0 0 0 0 0 0 
		17 0 0 0 0 0 0 0 0 0 0 0 0 23 0 0 0 0 0 0 0 0 23 0 0 0 0 0 27 0 0 0 0 0 0 0 0 0 27 0 0 0 0 40 0 37 0 0 0 0 0 0 0 0 31 0 0 0 0 25 33 0 0 0 0 33 0 0 0 0 0 0 0 20 0 0 
		18 0 31 0 0 0 24 0 0 0 0 0 29 0 0 0 0 0 0 0 0 0 0 0 29 0 26 31 0 0 0 0 0 0 0 0 0 0 0 0 0 0 0 0 0 0 0 0 0 30 0 0 0 0 0 0 0 0 36 0 25 0 32 0 0 0 29 0 0 0 0 0 0 0 0 0 
		19 0 0 0 0 0 0 0 0 0 0 0 0 0 0 0 0 0 0 0 0 0 0 39 0 37 0 0 0 0 0 0 37 25 0 0 0 0 0 30 0 0 0 31 0 0 39 0 0 0 0 33 0 0 0 0 0 0 0 0 0 0 0 0 28 0 0 25 0 0 0 0 0 0 32 0 
		20 0 0 0 0 0 0 0 0 0 0 0 0 0 0 0 0 0 0 0 0 0 0 0 0 0 0 0 0 26 0 0 0 0 0 0 0 0 0 0 0 0 0 0 0 0 0 0 0 0 0 0 0 0 0 0 0 0 0 0 0 0 0 0 0 0 0 0 0 0 0 0 0 0 0 0 
		21 0 0 0 0 0 0 0 0 0 0 0 27 0 0 0 22 0 23 0 0 0 0 0 0 0 0 0 0 0 0 0 0 0 31 23 0 0 0 0 0 0 0 0 0 0 0 0 0 27 0 0 0 0 21 0 39 0 0 0 0 0 0 0 0 0 21 20 0 0 0 0 35 0 0 0 
		22 0 0 0 0 0 0 37 0 0 0 0 0 0 0 0 0 0 0 0 39 0 0 0 0 27 0 0 0 0 0 0 0 0 0 0 0 0 0 30 0 22 0 20 0 0 0 0 0 0 0 23 0 0 30 0 0 23 0 0 0 26 0 0 0 0 0 0 0 0 0 30 26 0 23 0 
		23 0 0 0 0 0 0 20 0 0 0 0 0 0 0 0 0 0 0 29 0 0 0 0 0 0 0 0 0 0 0 0 0 0 0 0 0 0 0 0 0 0 0 0 0 0 0 0 0 36 0 0 0 0 0 0 0 0 0 0 0 0 24 0 0 0 0 0 0 0 37 0 0 0 0 0 
		24 0 0 0 0 0 0 39 0 0 20 0 0 0 0 0 0 0 0 0 37 0 0 27 0 0 0 28 0 0 0 24 39 0 0 39 0 0 0 0 0 0 37 0 27 0 40 0 0 0 0 0 0 0 0 0 0 0 0 25 0 0 0 0 0 0 0 0 0 0 21 0 0 0 0 32 
		25 0 0 0 0 0 0 0 0 0 0 0 0 0 0 30 0 0 0 26 0 0 0 0 0 0 0 37 0 0 0 0 30 0 31 0 34 0 0 0 0 0 0 0 0 0 0 0 0 0 0 0 0 0 0 0 0 0 0 0 0 0 0 0 23 0 39 25 32 0 0 0 0 31 0 0 
		26 0 0 0 0 0 40 25 0 0 0 0 21 0 0 36 0 0 0 31 0 0 0 0 0 28 37 0 29 33 0 0 0 0 0 0 0 0 0 0 0 0 0 28 0 0 0 0 0 0 0 0 0 0 0 0 0 0 0 0 0 0 0 36 0 0 27 0 0 24 0 0 0 0 0 0 
		27 0 0 0 0 0 0 0 0 0 0 0 20 0 0 0 0 0 27 0 0 0 0 0 0 0 0 29 0 0 0 23 0 0 0 0 0 0 0 38 0 0 0 0 0 0 0 0 0 0 0 0 0 0 0 0 0 0 0 25 37 0 0 0 0 0 0 30 0 40 0 0 0 0 0 0 
		28 0 0 36 0 0 0 0 0 0 0 0 0 0 0 32 0 0 0 0 0 26 0 0 0 0 0 33 0 0 0 0 0 0 0 34 0 0 0 0 0 0 0 0 0 0 0 0 0 0 22 0 0 0 0 0 0 0 0 0 23 0 0 0 0 0 0 0 31 0 0 0 0 0 0 0 
		29 0 0 0 0 0 0 0 0 0 0 0 0 0 0 0 0 0 0 0 0 0 0 0 0 0 0 0 0 0 0 0 0 0 0 0 0 0 0 0 0 0 29 0 24 0 0 0 0 0 0 0 0 0 0 0 0 0 0 0 0 0 0 0 0 0 0 0 0 0 0 0 0 0 0 0 
		30 0 0 26 0 0 0 0 0 0 0 0 0 0 38 28 0 0 0 0 0 0 0 0 0 24 0 0 23 0 0 0 0 0 0 0 0 0 0 0 21 0 0 0 0 0 0 0 0 22 0 0 0 0 0 0 0 0 0 0 0 0 0 0 0 0 0 0 0 0 0 0 26 0 0 0 
		31 0 0 0 0 0 0 0 0 0 0 0 0 0 0 0 0 0 0 0 37 0 0 0 0 39 30 0 0 0 0 0 0 0 21 0 0 0 0 0 0 0 0 0 0 0 0 0 0 0 23 0 22 0 0 0 0 0 0 0 0 0 0 0 0 0 0 0 0 0 22 27 0 0 0 0 
		32 0 0 0 0 25 31 0 0 0 0 0 0 0 0 0 0 0 0 0 25 0 0 0 0 0 0 0 0 0 0 0 0 0 24 0 0 0 0 34 0 0 0 0 0 0 0 0 0 0 0 0 0 0 0 31 0 0 0 23 0 0 0 0 0 0 0 0 0 0 0 0 0 0 0 0 
		33 0 0 0 30 0 0 38 0 0 0 0 0 0 0 0 0 0 0 0 0 0 31 0 0 0 31 0 0 0 0 0 21 24 0 0 0 0 0 26 0 0 0 23 0 0 33 0 0 0 0 0 0 30 0 0 0 0 0 0 24 0 0 0 0 0 0 0 35 0 0 0 0 28 0 0 
		34 0 0 0 0 0 0 0 0 0 0 0 31 32 0 0 0 0 0 0 0 0 23 0 0 39 0 0 0 34 0 0 0 0 0 0 0 0 0 0 0 0 0 0 0 28 0 0 0 0 0 0 0 0 0 0 0 0 23 0 0 0 0 27 0 40 0 30 0 27 0 0 0 0 0 0 
		35 0 0 0 0 0 0 0 0 0 0 0 0 0 33 0 0 0 0 0 0 0 0 0 0 0 34 0 0 0 0 0 0 0 0 0 0 0 0 0 0 0 0 0 0 0 0 0 0 0 0 0 0 36 0 0 0 0 0 0 0 0 0 0 0 0 0 0 0 0 23 0 0 0 0 0 
		36 0 0 0 0 0 0 0 0 0 0 0 0 0 0 0 0 0 0 0 0 0 0 0 0 0 0 0 0 0 0 0 0 0 0 0 0 0 0 29 22 0 0 0 0 0 0 0 0 0 0 0 0 0 0 0 0 0 22 0 0 0 0 0 0 38 0 0 0 0 0 0 0 0 0 0 
		37 0 0 0 0 0 0 0 0 0 0 0 35 0 0 0 0 0 27 0 0 0 0 0 0 0 0 0 0 0 0 0 0 0 0 0 0 0 0 0 0 0 0 0 0 0 0 0 0 0 0 0 0 0 0 0 0 0 0 0 0 0 0 0 0 0 0 0 25 0 0 26 0 0 0 0 
		38 0 0 0 0 30 0 0 0 0 0 0 0 0 0 0 0 0 0 0 30 0 0 30 0 0 0 0 38 0 0 0 0 34 26 0 0 29 0 0 0 0 0 0 0 0 0 0 0 0 0 0 0 0 0 0 0 0 0 0 0 0 0 0 28 23 0 0 0 0 0 0 0 0 0 0 
		39 0 40 26 0 0 0 32 0 0 0 22 0 0 0 0 0 0 0 0 0 0 0 0 0 0 0 0 0 0 0 21 0 0 0 0 0 22 0 0 0 0 0 0 0 0 0 0 0 0 0 0 0 23 0 0 0 0 0 0 0 0 0 0 39 0 0 0 27 0 0 0 0 36 0 0 
		40 0 0 0 0 0 0 0 0 0 0 0 0 0 0 0 30 0 0 0 0 0 0 22 0 0 0 0 0 0 0 0 0 0 0 0 0 0 0 0 0 0 0 0 0 0 0 0 0 0 0 0 0 0 0 0 0 0 0 0 0 0 0 0 0 39 25 0 0 0 0 0 0 0 0 21 
		41 0 0 0 0 0 0 0 0 0 0 0 0 0 0 0 0 23 0 0 0 0 0 0 0 37 0 0 0 0 29 0 0 0 0 0 0 0 0 0 0 0 0 0 0 40 0 0 36 40 0 0 0 0 0 0 0 0 0 0 0 0 0 0 0 0 0 0 0 0 0 0 0 29 0 0 
		42 0 0 0 0 0 0 0 0 0 0 34 0 28 27 0 0 0 40 0 31 0 0 20 0 0 0 28 0 0 0 0 0 0 23 0 0 0 0 0 0 0 0 0 0 0 0 0 0 0 0 0 0 0 33 0 24 0 0 0 0 0 0 0 0 0 31 23 0 0 0 0 0 0 27 0 
		43 0 27 0 0 0 0 23 0 0 0 0 0 0 0 0 0 0 0 0 0 0 0 0 0 27 0 0 0 0 24 0 0 0 0 0 0 0 0 0 0 0 0 0 0 0 0 0 0 0 21 0 0 24 39 0 0 22 0 0 0 0 0 0 0 0 0 33 0 0 0 0 0 0 0 0 
		44 0 0 21 22 0 0 0 0 0 0 22 40 36 38 0 0 0 37 0 0 0 0 0 0 0 0 0 0 0 0 0 0 0 0 28 0 0 0 0 0 0 40 0 0 0 0 0 0 0 0 0 0 0 0 0 0 0 0 0 0 0 22 40 36 0 0 0 0 24 0 0 0 0 0 0 
		45 0 0 0 0 21 0 0 26 0 35 0 0 26 0 0 0 0 0 0 39 0 0 0 0 40 0 0 0 0 0 0 0 0 33 0 0 0 0 0 0 0 0 0 0 0 0 0 0 0 0 0 0 0 0 0 0 0 0 0 0 0 39 36 30 20 0 0 0 0 0 37 0 0 0 0 
		46 38 0 0 0 0 0 0 0 20 0 0 0 0 36 0 0 0 0 0 0 0 0 0 0 0 0 0 0 0 0 0 0 0 0 0 0 0 0 0 0 0 0 0 0 0 0 0 27 0 0 20 0 0 0 0 0 0 0 0 0 0 0 0 0 0 0 0 0 0 0 0 0 0 0 0 
		47 0 0 0 0 0 0 0 32 0 0 0 0 0 0 0 0 23 0 0 0 0 0 0 0 0 0 0 0 0 0 0 0 0 0 0 0 0 0 0 0 0 36 0 0 0 0 27 0 0 0 0 0 0 0 0 32 0 0 0 0 0 0 0 0 30 0 0 0 0 0 0 0 0 0 0 
		48 0 0 0 0 0 0 0 0 0 0 0 0 0 0 29 0 0 0 30 0 0 27 0 36 0 0 0 0 0 0 22 0 0 0 0 0 0 0 0 0 0 40 0 0 0 0 0 0 0 0 0 0 0 0 29 0 0 24 0 0 0 31 20 38 0 0 0 0 36 0 0 0 0 0 0 
		49 29 0 0 26 0 0 0 0 0 0 0 0 0 0 0 0 0 0 0 0 0 0 0 0 0 0 0 0 22 0 0 23 0 0 0 0 0 0 0 0 0 0 0 21 0 0 0 0 0 0 0 0 0 0 0 0 0 0 0 0 0 0 0 0 0 0 0 0 0 0 0 0 37 0 0 
		50 0 0 0 0 0 0 0 0 0 0 0 0 0 0 0 0 25 0 0 33 0 0 23 0 0 0 0 0 0 0 0 0 0 0 0 0 0 0 0 0 0 0 0 0 0 0 20 0 0 0 0 0 0 0 0 0 0 0 0 0 0 0 0 0 35 0 0 0 0 0 0 0 31 0 0 
		51 0 0 0 0 0 0 0 0 0 0 23 0 0 23 0 0 0 0 0 0 0 0 0 0 0 0 0 0 0 0 0 22 0 0 0 0 0 0 0 0 0 0 0 0 0 0 0 0 0 0 0 0 0 25 0 0 0 0 0 0 0 0 0 0 0 0 0 0 0 0 0 0 0 0 0 
		52 0 0 0 0 0 0 33 0 0 30 0 0 0 0 0 27 0 0 0 0 0 0 0 0 0 0 0 0 0 0 0 0 0 30 0 36 0 0 0 23 0 0 0 24 0 0 0 0 0 0 0 0 0 0 0 0 0 27 0 0 0 20 0 38 0 0 0 0 0 0 0 0 0 0 0 
		53 0 36 0 0 33 0 0 0 0 0 0 0 0 0 0 0 0 31 0 0 0 21 30 0 0 0 0 0 0 0 0 0 0 0 0 0 0 0 0 0 0 0 33 39 0 0 0 0 0 0 0 25 0 0 0 0 0 0 0 0 0 0 0 0 0 0 0 0 0 0 0 0 0 0 0 
		54 0 0 0 0 0 0 30 0 0 0 0 0 23 0 0 0 0 0 0 0 0 0 0 0 0 0 0 0 0 0 0 0 31 0 0 0 0 0 0 0 0 0 0 0 0 0 0 0 29 0 0 0 0 0 0 0 0 24 0 0 0 0 0 34 0 0 0 0 0 0 0 0 0 0 0 
		55 36 0 0 37 0 0 0 0 27 0 0 0 0 0 0 0 0 0 0 0 0 39 0 0 0 0 0 0 0 0 0 0 0 0 0 0 0 0 0 0 0 0 24 0 0 0 0 32 0 0 0 0 0 0 0 0 0 0 0 0 0 0 0 0 0 0 0 0 0 0 0 0 0 0 23 
		56 0 0 0 0 0 0 0 0 0 0 0 0 0 0 0 0 0 0 0 0 0 0 23 0 0 0 0 0 0 0 0 0 0 0 0 0 0 0 0 0 0 0 0 22 0 0 0 0 0 0 0 0 0 0 0 0 0 0 0 0 35 0 31 0 0 0 0 0 0 0 0 0 0 0 0 
		57 0 0 0 0 0 0 34 0 0 0 0 0 0 0 0 0 0 0 36 0 0 0 0 0 0 0 0 0 0 0 0 0 0 0 23 0 22 0 0 0 0 0 0 0 0 0 0 0 24 0 0 0 27 0 24 0 0 0 0 0 0 0 0 0 0 0 0 0 0 0 0 0 22 0 0 
		58 0 0 0 36 0 31 0 0 0 0 0 0 0 0 0 34 0 25 0 0 0 0 0 0 25 0 0 25 0 0 0 0 23 0 0 0 0 0 0 0 0 0 0 0 0 0 0 0 0 0 0 0 0 0 0 0 0 0 0 0 0 39 0 0 0 21 0 0 0 0 0 0 0 0 26 
		59 33 0 0 0 0 0 0 0 22 34 0 0 0 0 0 23 0 33 25 0 0 0 0 0 0 0 0 37 23 0 0 0 0 24 0 0 0 0 0 0 0 0 0 0 0 0 0 0 0 0 0 0 0 0 0 0 0 0 0 0 39 33 23 0 0 0 0 0 0 0 0 0 0 21 0 
		60 0 25 0 0 0 0 0 0 0 0 0 0 0 0 0 0 0 0 0 0 0 0 26 0 0 0 0 0 0 0 0 0 0 0 0 0 0 0 0 0 0 0 0 0 0 0 0 0 0 0 0 0 0 0 0 0 35 0 0 39 0 0 0 0 0 0 0 0 0 0 0 0 0 0 0 
		61 0 0 0 36 0 25 0 0 0 0 0 0 0 0 0 0 40 0 32 0 0 0 0 24 0 0 0 0 0 0 0 0 0 0 0 0 0 0 0 0 0 0 0 0 22 39 0 0 31 0 0 0 20 0 0 0 0 0 39 33 0 0 0 0 0 0 0 0 23 0 0 0 0 0 0 
		62 0 0 0 0 0 24 0 0 0 0 0 0 0 0 0 0 0 0 0 0 0 0 0 0 0 0 36 0 0 0 0 0 0 0 27 0 0 0 0 0 0 0 0 0 40 36 0 0 20 0 0 0 0 0 0 0 31 0 0 23 0 0 0 0 0 0 0 30 35 27 0 0 0 0 0 
		63 0 0 0 0 40 0 0 0 0 0 0 33 0 0 38 0 0 0 0 28 0 0 0 0 0 23 0 0 0 0 0 0 0 0 0 0 0 0 28 39 0 0 0 0 36 30 0 0 38 0 0 0 38 0 34 0 0 0 0 0 0 0 0 0 0 0 39 0 0 0 35 0 0 0 37 
		64 0 0 21 0 0 0 0 0 26 0 36 26 0 0 0 0 0 33 0 0 0 0 0 0 0 0 0 0 0 0 0 0 0 0 40 0 38 0 23 0 39 0 0 0 0 20 0 30 0 0 35 0 0 0 0 0 0 0 0 0 0 0 0 0 0 0 25 0 0 0 0 20 0 0 0 
		65 0 0 0 0 0 0 0 0 0 0 0 0 0 0 0 0 0 0 29 0 0 21 0 0 0 39 27 0 0 0 0 0 0 0 0 0 0 0 0 0 25 0 31 0 0 0 0 0 0 0 0 0 0 0 0 0 0 0 21 0 0 0 0 0 0 0 0 0 0 0 0 0 0 0 0 
		66 0 0 0 0 0 0 34 0 0 0 0 0 38 0 0 0 0 0 0 25 0 20 0 0 0 25 0 30 0 0 0 0 0 0 30 0 0 0 0 0 0 0 23 33 0 0 0 0 0 0 0 0 0 0 0 0 0 0 0 0 0 0 0 39 25 0 0 0 0 0 0 0 0 0 0 
		67 0 0 0 0 0 0 0 0 0 0 0 0 0 0 0 0 0 0 0 0 0 0 0 0 0 32 0 0 31 0 0 0 0 35 0 0 0 25 0 27 0 0 0 0 0 0 0 0 0 0 0 0 0 0 0 0 0 0 0 0 0 0 30 0 0 0 0 0 0 23 0 0 0 0 0 
		68 0 0 0 22 0 0 0 0 0 0 0 0 0 0 0 0 0 0 0 0 0 0 0 0 0 0 24 40 0 0 0 0 0 0 27 0 0 0 0 0 0 0 0 0 24 0 0 0 36 0 0 0 0 0 0 0 0 0 0 0 0 23 35 0 0 0 0 0 0 0 0 0 33 0 0 
		69 0 0 0 0 32 0 0 0 0 0 0 0 0 0 0 0 0 0 0 0 0 0 0 37 21 0 0 0 0 0 0 22 0 0 0 23 0 0 0 0 0 0 0 0 0 0 0 0 0 0 0 0 0 0 0 0 0 0 0 0 0 0 27 0 0 0 0 23 0 0 0 0 0 0 0 
		70 0 24 0 0 0 0 0 0 0 23 0 0 20 0 27 0 0 0 0 0 0 0 30 0 0 0 0 0 0 0 0 27 0 0 0 0 0 26 0 0 0 0 0 0 0 37 0 0 0 0 0 0 0 0 0 0 0 0 0 0 0 0 0 35 0 0 0 0 0 0 0 0 0 0 0 
		71 0 36 0 25 0 0 0 0 0 0 0 0 0 0 0 0 0 0 0 0 0 35 26 0 0 0 0 0 0 0 26 0 0 0 0 0 0 0 0 0 0 0 0 0 0 0 0 0 0 0 0 0 0 0 0 0 0 0 0 0 0 0 0 0 20 0 0 0 0 0 0 0 0 0 0 
		72 0 0 0 21 23 0 0 0 0 0 0 0 0 0 22 0 0 20 0 0 0 0 0 0 0 31 0 0 0 0 0 0 0 28 0 0 0 0 0 36 0 29 0 0 0 0 0 0 0 37 31 0 0 0 0 0 0 22 0 0 0 0 0 0 0 0 0 0 33 0 0 0 0 0 0 
		73 0 0 0 0 0 0 0 0 0 0 0 0 0 0 0 0 0 0 0 32 0 0 23 0 0 0 0 0 0 0 0 0 0 0 0 0 0 0 0 0 0 0 27 0 0 0 0 0 0 0 0 0 0 0 0 0 0 0 0 21 0 0 0 0 0 0 0 0 0 0 0 0 0 0 32 
		74 0 0 0 0 0 0 0 0 0 0 0 0 0 0 0 0 0 0 0 0 0 0 0 0 32 0 0 0 0 0 0 0 0 0 0 0 0 0 0 0 21 0 0 0 0 0 0 0 0 0 0 0 0 0 0 23 0 0 26 0 0 0 0 37 0 0 0 0 0 0 0 0 0 32 0 
;
